(declare-const main____CPAchecker_TMP_3 Int)
(declare-const |__VERIFIER_assert__cond___11':227:254:268:286:386| Int)
(declare-const |havoc:12:62:258:276:376| Int)
(declare-const |havoc:21:63:259:277:377| Int)
(declare-const havoc Int)
(declare-const |main__cp':152:170:175:274:374| Int)
(declare-const |__VERIFIER_assert__cond___12':228:253:267:285:385| Int)
(declare-const |main__c':223:250:264:282:382| Int)
(declare-const __VERIFIER_assert__cond___11 Int)
(declare-const |main____CPAchecker_TMP_3':226:255:269:287:387| Int)
(declare-const |K:245:246:260:278:378| Int)
(declare-const |havoc:9:61:176:369| Int)
(declare-const __VERIFIER_assert__cond___15 Int)
(declare-const __VERIFIER_assert__cond___16 Int)
(declare-const __VERIFIER_assert__cond___12 Int)
(declare-const |havoc:26:64:212:288:388| Int)
(declare-const main____CPAchecker_TMP_1 Int)
(declare-const |__VERIFIER_assert__cond___10':225:249:263:281:381| Int)
(declare-const |havoc:1| Int)
(declare-const |__VERIFIER_assert__cond___15':154:169:174:273:373| Int)
(declare-const __VERIFIER_assert__cond___13 Int)
(declare-const |havoc:2| Int)
(declare-const |main__cp':152:248:262:280:380| Int)
(declare-const __VERIFIER_assert__cond___10 Int)
(declare-const |K:165:166:171:270:370| Int)
(declare-const |__VERIFIER_assert__cond___9':224:247:261:279:379| Int)
(declare-const __VERIFIER_assert__cond___9 Int)
(declare-const __VERIFIER_assert__cond___14 Int)
(declare-const |phi_main____CPAchecker_TMP_1:256:257:275:375| Int)
(declare-const |__VERIFIER_assert__cond___13':229:252:266:284:384| Int)
(declare-const |main____CPAchecker_TMP_1':153:167:172:271:371| Int)
(declare-const |__VERIFIER_assert__cond___16':155:168:173:272:372| Int)
(declare-const |__VERIFIER_assert__cond___14':230:251:265:283:383| Int)
(assert (and (<= (+ havoc -1000000) 0) (<= (+ (- havoc) -1000000) 0)
               (<= (+ |havoc:1| -1000000) 0)
               (<= (+ (- |havoc:1|) -1000000) 0)
               (<= (+ |havoc:2| -1000000) 0)
               (<= (+ (- |havoc:2|) -1000000) 0) (< (- havoc) 0)
               (< (- |havoc:1|) 0) (<= (- |havoc:2|) 0) (not (= |havoc:2| 0))
               (<= (+ |havoc:2| (- havoc) 1) 0)
               (not (= (ite (< (+ |havoc:2| (- havoc) -1) 0) 1 0) 0))
               (not (= (ite (<= (+ (- |havoc:2|) 1) 0) 1 0) 0))
               (not (= |havoc:9:61:176:369| 0))
               (not (= (ite (< (+ |havoc:2| (- havoc)) 0) 1 0) 0))
               (not (= (ite (<= (- |havoc:2|) 0) 1 0) 0))
               (or (not (and (<= (- |K:165:166:171:270:370|) 0)
                               (<= |K:165:166:171:270:370| 0)))
                     (= (+ (- main____CPAchecker_TMP_1)
                             |main____CPAchecker_TMP_1':153:167:172:271:371|) 0))
               (or (not (<= (+ (- |K:165:166:171:270:370|) 1) 0))
                     (= |main____CPAchecker_TMP_1':153:167:172:271:371| 0))
               (or (not (and (<= (- |K:165:166:171:270:370|) 0)
                               (<= |K:165:166:171:270:370| 0)))
                     (= (+ (- __VERIFIER_assert__cond___16)
                             |__VERIFIER_assert__cond___16':155:168:173:272:372|) 0))
               (or (not (<= (+ (- |K:165:166:171:270:370|) 1) 0))
                     (= (+ |__VERIFIER_assert__cond___16':155:168:173:272:372|
                             -1) 0))
               (or (not (and (<= (- |K:165:166:171:270:370|) 0)
                               (<= |K:165:166:171:270:370| 0)))
                     (= (+ (- __VERIFIER_assert__cond___15)
                             |__VERIFIER_assert__cond___15':154:169:174:273:373|) 0))
               (or (not (<= (+ (- |K:165:166:171:270:370|) 1) 0))
                     (= (+ |__VERIFIER_assert__cond___15':154:169:174:273:373|
                             -1) 0))
               (or (not (<= (- |K:165:166:171:270:370|) 0))
                     (= (+ |main__cp':152:170:175:274:374|
                             (- |K:165:166:171:270:370|) (- |havoc:2|)) 0))
               (or (and (= |K:165:166:171:270:370| 0)
                          (= (+ __VERIFIER_assert__cond___16
                                  (- |__VERIFIER_assert__cond___16':155:168:173:272:372|)) 0)
                          (= (+ __VERIFIER_assert__cond___15
                                  (- |__VERIFIER_assert__cond___15':154:169:174:273:373|)) 0)
                          (= (+ main____CPAchecker_TMP_1
                                  (- |main____CPAchecker_TMP_1':153:167:172:271:371|)) 0)
                          (= (+ (- |main__cp':152:170:175:274:374|) |havoc:2|) 0))
                     (and (<= (+ (- |K:165:166:171:270:370|) 1) 0)
                            (<= (+ |havoc:2| (- havoc) 2) 0)
                            (<= (+ (- |havoc:2|) 1) 0)
                            (= (+ |__VERIFIER_assert__cond___16':155:168:173:272:372|
                                    -1) 0)
                            (= (+ |__VERIFIER_assert__cond___15':154:169:174:273:373|
                                    -1) 0)
                            (= |main____CPAchecker_TMP_1':153:167:172:271:371| 0)
                            (<= (+ |main__cp':152:170:175:274:374| (- 
                                     havoc) 1) 0)
                            (<= (+ (- |main__cp':152:170:175:274:374|) 2) 0)))
               (<= (- |K:165:166:171:270:370|) 0) (< (- havoc) 0)
               (< (- |main__cp':152:170:175:274:374|) 0)
               (or (and (<= (+ (- |main__cp':152:170:175:274:374|) havoc -1) 0)
                          (<= (+ |main__cp':152:170:175:274:374| (- havoc) 1) 0)
                          (= (+ (- |phi_main____CPAchecker_TMP_1:256:257:275:375|)
                                  |main____CPAchecker_TMP_1':153:167:172:271:371|) 0))
                     (and (or (< (+ |main__cp':152:170:175:274:374| (- 
                                      havoc) 1) 0)
                                (< (+ (- |main__cp':152:170:175:274:374|)
                                        havoc -1) 0))
                            (not (= |havoc:12:62:258:276:376| 0))
                            (= (+ |havoc:12:62:258:276:376|
                                    (- |phi_main____CPAchecker_TMP_1:256:257:275:375|)) 0)))
               (not (= (ite (< (+ |main__cp':152:170:175:274:374| (- havoc)) 0)
                            1 0) 0))
               (not (= (ite (<= (- |main__cp':152:170:175:274:374|) 0) 1 0) 0))
               (not (= (+ |main__cp':152:170:175:274:374| (- havoc) 1) 0))
               (not (= (ite (< (+ |main__cp':152:170:175:274:374| (- havoc) 1) 0)
                            1 0) 0))
               (not (= (ite (<= (+ (- |main__cp':152:170:175:274:374|) -1) 0)
                            1 0) 0))
               (not (= (+ |main__cp':152:170:175:274:374| (- havoc) 2) 0))
               (not (= |havoc:21:63:259:277:377| 0))
               (not (= (ite (< (+ |main__cp':152:170:175:274:374| (- havoc) 1) 0)
                            1 0) 0))
               (not (= (ite (<= (+ (- |main__cp':152:170:175:274:374|) -1) 0)
                            1 0) 0))
               (or (not (and (<= (- |K:245:246:260:278:378|) 0)
                               (<= |K:245:246:260:278:378| 0)))
                     (= (+ (- __VERIFIER_assert__cond___9)
                             |__VERIFIER_assert__cond___9':224:247:261:279:379|) 0))
               (or (not (<= (+ (- |K:245:246:260:278:378|) 1) 0))
                     (= (+ |__VERIFIER_assert__cond___9':224:247:261:279:379|
                             -1) 0))
               (or (not (<= (- |K:245:246:260:278:378|) 0))
                     (= (+ |main__cp':152:248:262:280:380|
                             (- |K:245:246:260:278:378|)
                             (- |main__cp':152:170:175:274:374|) -1) 0))
               (or (not (and (<= (- |K:245:246:260:278:378|) 0)
                               (<= |K:245:246:260:278:378| 0)))
                     (= (+ (- __VERIFIER_assert__cond___10)
                             |__VERIFIER_assert__cond___10':225:249:263:281:381|) 0))
               (or (not (<= (+ (- |K:245:246:260:278:378|) 1) 0))
                     (= (+ |__VERIFIER_assert__cond___10':225:249:263:281:381|
                             -1) 0))
               (or (not (<= (- |K:245:246:260:278:378|) 0))
                     (<= (+ |main__c':223:250:264:282:382|
                              (- |K:245:246:260:278:378|)) 0))
               (or (not (<= (- |K:245:246:260:278:378|) 0))
                     (<= (- |main__c':223:250:264:282:382|) 0))
               (or (and (= |K:245:246:260:278:378| 0)
                          (= (+ (- |__VERIFIER_assert__cond___14':230:251:265:283:383|)
                                  __VERIFIER_assert__cond___14) 0)
                          (= (+ (- |__VERIFIER_assert__cond___13':229:252:266:284:384|)
                                  __VERIFIER_assert__cond___13) 0)
                          (= (+ (- |__VERIFIER_assert__cond___12':228:253:267:285:385|)
                                  __VERIFIER_assert__cond___12) 0)
                          (= (+ (- |__VERIFIER_assert__cond___11':227:254:268:286:386|)
                                  __VERIFIER_assert__cond___11) 0)
                          (= (+ (- |main____CPAchecker_TMP_3':226:255:269:287:387|)
                                  main____CPAchecker_TMP_3) 0)
                          (= (+ __VERIFIER_assert__cond___10
                                  (- |__VERIFIER_assert__cond___10':225:249:263:281:381|)) 0)
                          (= (+ __VERIFIER_assert__cond___9
                                  (- |__VERIFIER_assert__cond___9':224:247:261:279:379|)) 0)
                          (= (- |main__c':223:250:264:282:382|) 0)
                          (= (+ (- |main__cp':152:248:262:280:380|)
                                  |main__cp':152:170:175:274:374| 1) 0))
                     (and (<= (+ (- |K:245:246:260:278:378|) 1) 0)
                            (<= (+ |main__cp':152:170:175:274:374| (- 
                                     havoc) 3) 0) (<= (+ (- |havoc:1|) 2) 0)
                            (<= (- |main__cp':152:170:175:274:374|) 0)
                            (= (+ |__VERIFIER_assert__cond___10':225:249:263:281:381|
                                    -1) 0)
                            (= (+ |__VERIFIER_assert__cond___9':224:247:261:279:379|
                                    -1) 0)
                            (<= (+ |main__cp':152:248:262:280:380| (- 
                                     havoc) 1) 0)
                            (<= (+ |main__c':223:250:264:282:382|
                                     (- |havoc:1|) 1) 0)
                            (<= (+ (- |havoc:1|) 2) 0)
                            (<= (- |main__c':223:250:264:282:382|) 0)
                            (<= (+ (- |main__cp':152:248:262:280:380|) 2) 0)))
               (<= (- |K:245:246:260:278:378|) 0) (< (- |havoc:1|) 0)
               (<= (- |main__c':223:250:264:282:382|) 0) (< (- havoc) 0)
               (< (- |main__cp':152:248:262:280:380|) 0)
               (or (< (+ |main__cp':152:248:262:280:380| (- havoc) 1) 0)
                     (< (+ (- |main__cp':152:248:262:280:380|) havoc -1) 0))
               (< (+ |main__c':223:250:264:282:382| (- |havoc:1|) 1) 0)
               (not (= (ite (< (+ |main__cp':152:248:262:280:380| (- havoc)) 0)
                            1 0) 0))
               (not (= (ite (<= (- |main__cp':152:248:262:280:380|) 0) 1 0) 0))
               (not (= |havoc:26:64:212:288:388| 0))
               (not (= (ite (< (+ |main__c':223:250:264:282:382|
                                    (- |havoc:1|) 1) 0)
                            1 0) 0))
               (= (ite (<= (+ (- |main__c':223:250:264:282:382|) -1) 0) 1 0) 0)))
(check-sat)
